161 5
10 10 10 10 10 

0 0 0 0 0 0 5 2 24 46 68 90 
0 0 0 0 0 0 6 3 4 6 7 8 14 
1 0 0 0 1 1 4 22 20 10 5 
3 0 0 0 5 4 5 20 18 13 10 9 
4 0 0 0 4 3 4 21 18 16 9 
10 0 0 0 3 2 3 20 16 9 
2 0 0 0 3 2 4 20 18 17 10 
5 0 0 0 2 5 3 20 18 10 
6 0 0 0 1 4 3 19 12 11 
2 0 0 0 1 2 2 16 11 
9 0 0 0 3 2 1 15 
1 0 0 0 2 2 1 17 
6 0 0 0 1 4 1 19 
6 0 0 0 2 2 1 18 
5 0 0 0 1 1 1 23 
2 0 0 0 3 4 1 23 
9 0 0 0 1 3 1 23 
10 0 0 0 5 2 2 23 97 
6 0 0 0 3 1 1 23 
1 0 0 0 6 2 1 23 
2 0 0 0 1 2 1 23 
10 0 0 0 2 2 1 23 
0 0 0 0 0 0 1 126 
0 0 0 0 0 0 6 25 26 27 28 29 30 
3 1 0 1 0 0 6 39 35 34 33 32 31 
3 4 0 2 0 0 5 36 35 34 33 31 
6 3 0 2 0 0 4 35 33 32 31 
7 2 0 2 0 0 3 35 32 31 
4 2 0 5 0 0 3 35 33 31 
5 4 0 3 0 0 5 44 43 42 36 34 
8 2 0 2 0 0 5 44 43 42 38 37 
10 5 0 4 0 0 3 43 42 36 
8 2 0 1 0 0 3 44 42 37 
8 2 0 2 0 0 2 38 37 
3 1 0 8 0 0 3 43 41 40 
2 2 0 2 0 0 2 37 91 
9 2 0 1 0 0 2 41 40 
7 1 0 2 0 0 2 41 40 
9 2 0 2 0 0 2 42 40 
7 4 0 2 0 0 1 45 
7 1 0 1 0 0 1 45 
2 5 0 3 0 0 1 45 
8 2 0 3 0 0 1 45 
8 3 0 2 0 0 1 45 
0 0 0 0 0 0 1 126 
0 0 0 0 0 0 5 47 48 50 51 52 
4 1 0 0 1 0 2 56 49 
4 4 0 0 2 0 2 55 53 
2 6 0 0 3 0 4 66 59 57 54 
2 3 0 0 3 0 4 66 58 57 56 
2 2 0 0 3 0 3 66 56 54 
10 2 0 0 5 0 5 66 64 59 58 57 
2 4 0 0 2 0 5 66 64 58 57 103 
10 2 0 0 3 0 4 64 63 60 58 
8 2 0 0 2 0 3 64 59 57 
3 2 0 0 3 0 3 64 60 59 
1 2 0 0 2 0 3 63 62 60 
3 1 0 0 3 0 3 65 62 61 
6 4 0 0 2 0 3 63 62 61 
8 1 0 0 3 0 1 61 
1 2 0 0 1 0 1 67 
2 2 0 0 2 0 1 67 
10 2 0 0 1 0 1 67 
7 1 0 0 5 0 1 67 
7 3 0 0 2 0 1 67 
3 4 0 0 2 0 1 67 
0 0 0 0 0 0 1 126 
0 0 0 0 0 0 9 69 70 72 73 84 85 86 87 88 
3 0 0 1 0 1 4 83 82 77 71 
1 0 0 4 0 5 5 81 79 78 77 75 
2 0 0 3 0 1 3 79 78 74 
8 0 0 4 0 3 2 80 77 
7 0 0 4 0 3 2 78 77 
4 0 0 3 0 1 1 75 
5 0 0 1 0 4 1 76 
8 0 0 1 0 2 1 89 
5 0 0 3 0 2 1 89 
2 0 0 3 0 1 1 89 
5 0 0 2 0 2 1 89 
3 0 0 4 0 5 1 89 
1 0 0 2 0 3 1 89 
3 0 0 1 0 1 1 89 
5 0 0 1 0 3 1 89 
4 0 0 2 0 3 2 89 97 
10 0 0 4 0 3 1 89 
2 0 0 1 0 2 1 89 
9 0 0 3 0 3 1 89 
8 0 0 3 0 2 1 89 
0 0 0 0 0 0 1 126 
0 0 0 0 0 0 4 91 92 93 100 
10 0 1 0 0 0 4 99 98 97 95 
8 0 4 0 0 0 3 98 97 96 
5 0 3 0 0 0 1 94 
9 0 2 0 0 0 2 97 96 
8 0 4 0 0 0 2 96 109 
7 0 1 0 0 0 1 101 
5 0 2 0 0 0 1 101 
10 0 2 0 0 0 1 101 
1 0 5 0 0 0 1 101 
2 0 1 0 0 0 1 101 
0 0 0 0 0 0 2 102 114 
0 0 0 0 0 0 5 103 105 106 111 112 
8 0 1 0 0 0 2 110 104 
10 0 2 0 0 0 2 109 108 
4 0 4 0 0 0 1 107 
8 0 4 0 0 0 1 107 
6 0 3 0 0 0 1 113 
10 0 2 0 0 0 1 113 
5 0 1 0 0 0 1 113 
8 0 3 0 0 0 1 113 
4 0 4 0 0 0 2 113 122 
7 0 1 0 0 0 1 113 
0 0 0 0 0 0 1 126 
0 0 0 0 0 0 5 115 116 117 118 124 
5 0 1 0 0 0 3 123 121 120 
3 0 2 0 0 0 2 123 120 
8 0 4 0 0 0 2 123 119 
9 0 3 0 0 0 2 123 119 
4 0 2 0 0 0 1 122 
6 0 1 0 0 0 1 122 
10 0 2 0 0 0 1 122 
1 0 4 0 0 0 1 125 
5 0 3 0 0 0 1 125 
1 0 3 0 0 0 1 125 
0 0 0 0 0 0 1 126 
0 0 0 0 0 0 6 127 128 129 130 132 134 
8 0 0 1 0 0 2 133 131 
10 0 0 2 0 0 2 133 131 
8 0 0 3 0 0 2 133 131 
1 0 0 3 0 0 2 133 131 
1 0 0 3 0 0 2 136 135 
1 0 0 4 0 0 2 136 135 
2 0 0 3 0 0 1 136 
5 0 0 2 0 0 1 135 
4 0 0 1 0 0 1 137 
9 0 0 3 0 0 1 137 
0 0 0 0 0 0 1 138 
0 0 0 0 0 0 7 139 140 141 145 146 147 148 
10 0 1 0 0 0 2 144 142 
2 0 2 0 0 0 1 142 
8 0 1 0 0 0 1 142 
2 0 2 0 0 0 1 143 
2 0 3 0 0 0 1 149 
2 0 1 0 0 0 1 149 
2 0 4 0 0 0 1 149 
5 0 5 0 0 0 1 149 
6 0 3 0 0 0 1 149 
6 0 3 0 0 0 1 149 
0 0 0 0 0 0 1 150 
0 0 0 0 0 0 5 151 152 153 154 160 
3 0 0 1 0 0 3 159 157 156 
9 0 0 1 0 0 2 159 155 
6 0 0 1 0 0 2 159 158 
4 0 0 2 0 0 2 159 158 
1 0 0 2 0 0 1 158 
1 0 0 8 0 0 1 158 
1 0 0 2 0 0 1 158 
6 0 0 4 0 0 1 161 
5 0 0 2 0 0 1 161 
5 0 0 2 0 0 1 161 
0 0 0 0 0 0 0 
